
  22    4
  10   10   10   10

   0   0   0   0   0   6 2 4 6 7 8 9 
  10  10  10  10  10   1 3 
   9  10  10  10  10   3 14 11 5 
   6  10  10  10  10   6 21 20 16 14 13 12 
   1  10  10  10  10   5 21 19 13 12 10 
   9  10  10  10  10   4 14 12 11 10 
   7  10  10  10  10   6 21 20 18 16 14 13 
   5  10  10  10  10   4 21 19 12 10 
   5  10  10  10  10   5 21 20 17 16 12 
  10  10  10  10  10   5 20 18 17 16 15 
   3  10  10  10  10   3 19 16 15 
   8  10  10  10  10   2 18 15 
   6  10  10  10  10   2 17 15 
   2  10  10  10  10   1 19 
   3  10  10  10  10   1 22
   4  10  10  10  10   1 22
   2  10  10  10  10   1 22
  10  10  10  10  10   1 22
   3  10  10  10  10   1 22
   1  10  10  10  10   1 22
   3  10  10  10  10   1 22
   0   0   0   0   0   0 
